jobs  (incl. supersource/sink ):	52
RESOURCES
- renewable                 : 2 R
- nonrenewable              : 2 N
- doubly constrained        : 0 D
************************************************************************
PRECEDENCE RELATIONS:
jobnr.    #modes  #successors   successors
1	1	16		2 3 4 5 6 7 8 9 12 13 15 16 17 24 26 27 
2	3	10		51 49 47 46 42 30 25 23 22 10 
3	3	9		47 46 42 40 37 23 21 18 10 
4	3	11		50 47 46 41 40 38 37 25 21 20 19 
5	3	7		49 48 45 42 41 29 11 
6	3	14		50 49 48 47 46 45 42 41 39 38 34 28 22 21 
7	3	12		50 47 46 45 41 39 38 37 36 34 25 21 
8	3	5		46 43 41 29 14 
9	3	13		46 42 41 40 39 38 37 35 34 33 32 29 28 
10	3	10		50 45 44 41 38 34 33 32 31 19 
11	3	9		51 44 43 39 36 34 32 25 22 
12	3	10		45 43 42 40 38 36 34 33 32 25 
13	3	9		40 39 38 37 36 35 34 28 21 
14	3	9		51 47 45 42 38 34 33 32 25 
15	3	8		49 43 40 38 37 36 34 32 
16	3	7		37 36 35 34 33 32 28 
17	3	6		43 39 34 33 32 28 
18	3	3		49 33 25 
19	3	4		48 39 35 29 
20	3	4		42 34 32 28 
21	3	4		44 33 32 31 
22	3	4		40 37 35 33 
23	3	4		43 38 36 31 
24	3	3		37 36 32 
25	3	2		35 28 
26	3	2		43 41 
27	3	2		37 34 
28	3	1		31 
29	3	1		36 
30	3	1		33 
31	3	1		52 
32	3	1		52 
33	3	1		52 
34	3	1		52 
35	3	1		52 
36	3	1		52 
37	3	1		52 
38	3	1		52 
39	3	1		52 
40	3	1		52 
41	3	1		52 
42	3	1		52 
43	3	1		52 
44	3	1		52 
45	3	1		52 
46	3	1		52 
47	3	1		52 
48	3	1		52 
49	3	1		52 
50	3	1		52 
51	3	1		52 
52	1	0		
************************************************************************
REQUESTS/DURATIONS
jobnr.	mode	dur	R1	R2	N1	N2	
------------------------------------------------------------------------
1	1	0	0	0	0	0	
2	1	1	0	6	6	0	
	2	3	0	6	0	6	
	3	9	0	6	1	0	
3	1	1	2	0	10	0	
	2	5	2	0	7	0	
	3	10	0	8	6	0	
4	1	8	0	9	0	9	
	2	10	9	0	0	6	
	3	10	0	9	0	3	
5	1	4	0	7	0	7	
	2	7	0	4	0	7	
	3	8	1	0	0	5	
6	1	4	9	0	0	6	
	2	5	9	0	0	4	
	3	9	9	0	3	0	
7	1	3	0	3	0	8	
	2	4	0	3	1	0	
	3	6	6	0	1	0	
8	1	1	7	0	7	0	
	2	7	6	0	6	0	
	3	10	4	0	6	0	
9	1	4	0	7	3	0	
	2	6	0	7	0	5	
	3	8	0	7	0	4	
10	1	1	2	0	6	0	
	2	6	0	5	0	5	
	3	10	0	5	0	3	
11	1	1	0	5	0	9	
	2	5	9	0	0	7	
	3	5	8	0	2	0	
12	1	5	0	9	3	0	
	2	10	0	7	0	4	
	3	10	7	0	0	2	
13	1	1	3	0	6	0	
	2	3	3	0	4	0	
	3	5	0	2	2	0	
14	1	2	8	0	0	5	
	2	4	7	0	2	0	
	3	6	0	2	2	0	
15	1	3	0	6	0	9	
	2	3	7	0	0	7	
	3	7	4	0	0	7	
16	1	2	6	0	0	3	
	2	3	0	3	0	2	
	3	8	0	2	0	1	
17	1	1	0	6	6	0	
	2	5	0	5	0	3	
	3	8	6	0	0	3	
18	1	7	0	9	0	1	
	2	9	0	5	0	1	
	3	9	3	0	7	0	
19	1	2	5	0	0	6	
	2	5	4	0	0	6	
	3	9	0	3	1	0	
20	1	2	0	5	7	0	
	2	5	0	5	5	0	
	3	8	5	0	4	0	
21	1	1	0	9	0	9	
	2	7	0	8	0	8	
	3	8	2	0	0	7	
22	1	3	5	0	0	7	
	2	4	4	0	0	6	
	3	8	2	0	0	4	
23	1	1	0	2	7	0	
	2	2	4	0	7	0	
	3	10	3	0	3	0	
24	1	5	9	0	7	0	
	2	5	8	0	0	5	
	3	8	8	0	4	0	
25	1	2	0	8	8	0	
	2	4	6	0	0	6	
	3	8	0	6	3	0	
26	1	1	0	8	0	8	
	2	3	6	0	3	0	
	3	3	6	0	0	4	
27	1	3	0	6	0	10	
	2	5	0	6	0	9	
	3	6	0	6	0	8	
28	1	4	4	0	0	4	
	2	6	4	0	2	0	
	3	10	0	4	0	2	
29	1	5	4	0	10	0	
	2	8	0	5	10	0	
	3	8	4	0	0	2	
30	1	3	0	5	6	0	
	2	6	3	0	0	4	
	3	8	3	0	0	3	
31	1	7	0	7	1	0	
	2	8	6	0	0	4	
	3	8	5	0	1	0	
32	1	5	0	10	10	0	
	2	6	6	0	0	3	
	3	8	0	6	0	3	
33	1	5	0	3	0	7	
	2	7	5	0	2	0	
	3	9	3	0	1	0	
34	1	3	4	0	10	0	
	2	3	3	0	0	2	
	3	9	0	6	10	0	
35	1	4	0	9	5	0	
	2	6	3	0	0	5	
	3	6	0	8	0	4	
36	1	2	10	0	0	2	
	2	9	9	0	0	2	
	3	10	0	6	3	0	
37	1	6	10	0	10	0	
	2	9	8	0	5	0	
	3	10	0	4	3	0	
38	1	1	0	8	10	0	
	2	4	0	4	8	0	
	3	8	0	2	0	2	
39	1	1	0	9	8	0	
	2	2	0	9	0	6	
	3	9	3	0	0	2	
40	1	2	0	8	0	7	
	2	8	7	0	0	6	
	3	9	7	0	3	0	
41	1	8	0	3	0	7	
	2	8	0	2	2	0	
	3	9	0	2	0	5	
42	1	2	0	7	0	2	
	2	3	6	0	0	2	
	3	7	0	7	0	1	
43	1	1	8	0	0	7	
	2	3	8	0	3	0	
	3	9	8	0	2	0	
44	1	1	4	0	0	3	
	2	6	4	0	6	0	
	3	6	0	3	0	1	
45	1	3	0	3	8	0	
	2	4	0	3	0	3	
	3	10	2	0	6	0	
46	1	2	0	8	0	4	
	2	2	0	7	2	0	
	3	4	0	7	0	1	
47	1	1	0	5	5	0	
	2	1	4	0	0	3	
	3	7	4	0	0	2	
48	1	3	4	0	0	3	
	2	7	0	6	2	0	
	3	9	0	6	1	0	
49	1	2	2	0	4	0	
	2	3	0	2	3	0	
	3	5	2	0	1	0	
50	1	4	0	3	0	8	
	2	6	9	0	0	7	
	3	6	8	0	3	0	
51	1	4	0	1	8	0	
	2	8	9	0	8	0	
	3	9	9	0	6	0	
52	1	0	0	0	0	0	
************************************************************************

 RESOURCE AVAILABILITIES 
	R 1	R 2	N 1	N 2
	48	45	76	80

************************************************************************
